Gurobi Optimizer version 9.1.2 build v9.1.2rc0 (linux64)
Thread count: 36 physical cores, 72 logical processors, using up to 32 threads
Optimize a model with 12 rows, 57 columns and 590 nonzeros
Model fingerprint: 0xf32eec78
Model has 47 quadratic constraints
Coefficient statistics:
  Matrix range     [2e-05, 3e+00]
  QMatrix range    [1e+00, 1e+00]
  QLMatrix range   [1e+00, 1e+00]
  Objective range  [8e-03, 7e-01]
  Bounds range     [1e+00, 1e+00]
  RHS range        [1e+00, 1e+00]
Presolve removed 9 rows and 0 columns

Continuous model is non-convex -- solving as a MIP.

Presolve removed 9 rows and 0 columns
Presolve time: 0.00s
Presolved: 189 rows, 57 columns, 443 nonzeros
Presolved model has 47 bilinear constraint(s)
Variable types: 57 continuous, 0 integer (0 binary)

Root relaxation: objective -1.743721e+00, 44 iterations, 0.00 seconds

    Nodes    |    Current Node    |     Objective Bounds      |     Work
 Expl Unexpl |  Obj  Depth IntInf | Incumbent    BestBd   Gap | It/Node Time

     0     0   -1.74372    0   38          -   -1.74372      -     -    0s
H    0     0                       0.6147548   -1.74372   384%     -    0s
     0     0   -1.64739    0    1    0.61475   -1.64739   368%     -    0s
H    0     0                      -1.6450460   -1.64739  0.14%     -    0s
     0     0     cutoff    0        -1.64505   -1.64505  0.00%     -    0s

Cutting planes:
  RLT: 25
  BQP: 3

Explored 1 nodes (76 simplex iterations) in 0.01 seconds
Thread count was 32 (of 72 available processors)

Solution count 2: -1.64505 0.614755 
No other solutions better than -1.64505

Optimal solution found (tolerance 1.00e-04)
Best objective -1.645045978473e+00, best bound -1.645045978473e+00, gap 0.0000%

User-callback calls 78, time in user-callback 0.00 sec
Gurobi Optimizer version 9.1.2 build v9.1.2rc0 (linux64)
Thread count: 36 physical cores, 72 logical processors, using up to 32 threads
Optimize a model with 24 rows, 120 columns and 2480 nonzeros
Model fingerprint: 0x5e2d3af0
Model has 100 quadratic constraints
Coefficient statistics:
  Matrix range     [8e-06, 4e+00]
  QMatrix range    [1e+00, 1e+00]
  QLMatrix range   [1e+00, 1e+00]
  Objective range  [7e-03, 1e+00]
  Bounds range     [1e+00, 1e+00]
  RHS range        [1e+00, 1e+00]
Presolve removed 16 rows and 0 columns

Continuous model is non-convex -- solving as a MIP.

Presolve removed 16 rows and 0 columns
Presolve time: 0.00s
Presolved: 408 rows, 120 columns, 1351 nonzeros
Presolved model has 100 bilinear constraint(s)
Variable types: 120 continuous, 0 integer (0 binary)

Root relaxation: objective -9.415706e+00, 149 iterations, 0.00 seconds

    Nodes    |    Current Node    |     Objective Bounds      |     Work
 Expl Unexpl |  Obj  Depth IntInf | Incumbent    BestBd   Gap | It/Node Time

     0     0   -9.41571    0   86          -   -9.41571      -     -    0s
H    0     0                       0.4781602   -9.41571  2069%     -    0s
     0     0   -6.96247    0   90    0.47816   -6.96247  1556%     -    0s
H    0     0                       0.3738169   -6.96247  1963%     -    0s
     0     0   -6.96120    0   90    0.37382   -6.96120  1962%     -    0s
     0     0   -6.09742    0   90    0.37382   -6.09742  1731%     -    0s
H    0     0                      -1.1738415   -6.09742   419%     -    0s
     0     0   -5.99733    0  100   -1.17384   -5.99733   411%     -    0s
     0     0   -5.75980    0  100   -1.17384   -5.75980   391%     -    0s
     0     0   -5.70956    0  100   -1.17384   -5.70956   386%     -    0s
     0     0   -5.68153    0  100   -1.17384   -5.68153   384%     -    0s
     0     0   -5.66836    0  100   -1.17384   -5.66836   383%     -    0s
     0     0   -5.66297    0  100   -1.17384   -5.66297   382%     -    0s
     0     0   -5.65865    0  100   -1.17384   -5.65865   382%     -    0s
     0     0   -5.65563    0  100   -1.17384   -5.65563   382%     -    0s
     0     0   -5.65512    0  100   -1.17384   -5.65512   382%     -    0s
     0     0   -5.65511    0  100   -1.17384   -5.65511   382%     -    0s
     0     0   -5.65511    0  100   -1.17384   -5.65511   382%     -    0s
H    0     0                      -1.9776927   -5.65511   186%     -    0s
H    0     0                      -3.1581549   -5.65511  79.1%     -    0s
H    0     0                      -3.1684723   -5.65511  78.5%     -    0s
H    0     0                      -3.2609299   -5.65511  73.4%     -    0s
H    0     0                      -3.3917838   -5.65511  66.7%     -    0s
     0     2   -5.65511    0  100   -3.39178   -5.65511  66.7%     -    0s
*  840   692              28      -3.7062485   -5.03024  35.7%  32.4    0s
* 1277  1125              27      -3.8294825   -5.03024  31.4%  28.0    0s
* 1320  1125              44      -3.9011093   -5.03024  28.9%  27.7    0s
* 1325  1125              45      -3.9011103   -5.03024  28.9%  27.6    0s
* 1378  1125              29      -3.9033514   -5.03024  28.9%  27.2    0s
* 1566  1272              26      -4.3088459   -4.93124  14.4%  26.3    0s
* 1892  1295              28      -4.3544728   -4.92380  13.1%  24.9    0s
* 2326  1523              27      -4.3566767   -4.92380  13.0%  23.8    0s
* 2457  1523              27      -4.3625326   -4.92380  12.9%  23.3    0s
* 2627  1843              27      -4.3962632   -4.83773  10.0%  23.0    0s
* 2699  1843              41      -4.6068099   -4.83773  5.01%  22.6    0s
* 4176   121              32      -4.6086460   -4.83773  4.97%  21.5    0s
* 4292   121              39      -4.6213917   -4.83773  4.68%  21.3    0s
* 4366    88              38      -4.6217226   -4.83773  4.67%  21.2    1s
* 4421    88              36      -4.6231272   -4.83773  4.64%  21.0    1s
* 4443    88              29      -4.6265557   -4.83773  4.56%  21.0    1s
* 4464    88              30      -4.6273885   -4.83773  4.55%  21.0    1s
* 4610    22              37      -4.6275075   -4.83773  4.54%  20.7    1s
* 4611    22              37      -4.6275197   -4.83773  4.54%  20.7    1s
* 4613    22              37      -4.6278589   -4.83773  4.53%  20.7    1s
* 4619    22              37      -4.6278664   -4.83773  4.53%  20.6    1s
* 4718     0              29      -4.6279920   -4.63288  0.11%  20.3    1s
* 4719     0              29      -4.6279989   -4.63288  0.11%  20.3    1s

Explored 4725 nodes (96423 simplex iterations) in 1.04 seconds
Thread count was 32 (of 72 available processors)

Solution count 10: -4.628 -4.62799 -4.62787 ... -4.62172
No other solutions better than -4.628

Optimal solution found (tolerance 1.00e-04)
Best objective -4.627998894415e+00, best bound -4.627998894415e+00, gap 0.0000%

User-callback calls 9843, time in user-callback 0.00 sec



objective value: -4.627998894414884
objective bound: -4.627998894414884
x_opt: [0.0, 1.0, 1.0, 1.0, 1.0, 0.0, 0.0, 0.0, 0.3376627345561612, 1.0, 0.0, 0.45052359989586505, 1.0, 1.0, 1.0, 0.17687207446544265, 0.0, 0.0, -8.470329472543003e-20, 0.6091770156536904]
GUROBI solution time: 1.0403809547424316




